Maximize
  0.0128908031943042 Z_277_0_0 + 0.00909996222336047 Z_277_0_1
   + 0.00152395615785336 Z_277_0_2 + 0.5864087585724923 Z_277_0_3
   + 0.2900765198519897 Z_277_0_4 + 8.2563667607146425e-04 Z_205_1_0
   + 0.000693955 Z_205_1_1 + 0.791771113286432 Z_205_1_2
   + 0.00127030434028632 Z_205_1_3 + 0.1054389907451922 Z_205_1_4
   + 0.000929728 Z_356_1_0 + 5.7071346031882075e-04 Z_356_1_1
   + 0.7326165709554827 Z_356_1_2 + 0.00142535349594959 Z_356_1_3
   + 0.1644576339924997 Z_356_1_4 + 5.2518e-05 Z_719_0_0
   + 0.00155518032332583 Z_719_0_1 + 0.8740922207508252 Z_719_0_2
   + 5.5745318508636222e-04 Z_719_0_3 + 0.0237426277647477 Z_719_0_4
   + 0.00846505625850906 Z_217_0_0 + 0.0858046651894831 Z_217_0_1
   + 0.00439690253454984 Z_217_0_2 + 0.6545920881967675 Z_217_0_3
   + 0.1467412878206904 Z_217_0_4 + 0.00127161749485758 Z_134_0_0
   + 0.0541795547556223 Z_134_0_1 + 0.00154464326548222 Z_134_0_2
   + 0.0277721571493516 Z_134_0_3 + 0.8152320273346862 Z_134_0_4
   + 7.41142e-05 Z_267_0_0 + 0.00228359122161552 Z_267_0_1
   + 0.8609790088535418 Z_267_0_2 + 0.00137084507182438 Z_267_0_3
   + 0.0352924406998045 Z_267_0_4 + 1.153208629144749e-04 Z_522_0_0
   + 0.00377943254146326 Z_522_0_1 + 0.8628212295591854 Z_522_0_2
   + 4.1736231321243749e-04 Z_522_0_3 + 0.0328666547232244 Z_522_0_4
Subject To
 constraint1_2770: Z_277_0_0 + Z_277_0_1 + Z_277_0_2 + Z_277_0_3
   + Z_277_0_4 <= 1
 constraint1_2051: Z_205_1_0 + Z_205_1_1 + Z_205_1_2 + Z_205_1_3
   + Z_205_1_4 <= 1
 constraint1_3561: Z_356_1_0 + Z_356_1_1 + Z_356_1_2 + Z_356_1_3
   + Z_356_1_4 <= 1
 constraint1_7190: Z_719_0_0 + Z_719_0_1 + Z_719_0_2 + Z_719_0_3
   + Z_719_0_4 <= 1
 constraint1_2170: Z_217_0_0 + Z_217_0_1 + Z_217_0_2 + Z_217_0_3
   + Z_217_0_4 <= 1
 constraint1_1340: Z_134_0_0 + Z_134_0_1 + Z_134_0_2 + Z_134_0_3
   + Z_134_0_4 <= 1
 constraint1_2670: Z_267_0_0 + Z_267_0_1 + Z_267_0_2 + Z_267_0_3
   + Z_267_0_4 <= 1
 constraint1_5220: Z_522_0_0 + Z_522_0_1 + Z_522_0_2 + Z_522_0_3
   + Z_522_0_4 <= 1
 constraint2_2770: Z_277_0_0 <= 1
 constraint2_2771: Z_277_0_1 <= 1
 constraint2_2772: Z_277_0_2 <= 1
 constraint2_2773: Z_277_0_3 <= 1
 constraint2_2050: Z_205_1_0 <= 1
 constraint2_2051: Z_205_1_1 <= 1
 constraint2_2052: Z_205_1_2 <= 1
 constraint2_2053: Z_205_1_3 <= 1
 constraint2_3560: Z_356_1_0 <= 1
 constraint2_3561: Z_356_1_1 <= 1
 constraint2_3562: Z_356_1_2 <= 1
 constraint2_3563: Z_356_1_3 <= 1
 constraint2_5520: <= 1
 constraint2_5521: <= 1
 constraint2_5522: <= 1
 constraint2_5523: <= 1
 constraint2_7190: Z_719_0_0 <= 1
 constraint2_7191: Z_719_0_1 <= 1
 constraint2_7192: Z_719_0_2 <= 1
 constraint2_7193: Z_719_0_3 <= 1
 constraint2_5960: <= 1
 constraint2_5961: <= 1
 constraint2_5962: <= 1
 constraint2_5963: <= 1
 constraint2_2170: Z_217_0_0 <= 1
 constraint2_2171: Z_217_0_1 <= 1
 constraint2_2172: Z_217_0_2 <= 1
 constraint2_2173: Z_217_0_3 <= 1
 constraint2_1340: Z_134_0_0 <= 1
 constraint2_1341: Z_134_0_1 <= 1
 constraint2_1342: Z_134_0_2 <= 1
 constraint2_1343: Z_134_0_3 <= 1
 constraint2_1020: <= 1
 constraint2_1021: <= 1
 constraint2_1022: <= 1
 constraint2_1023: <= 1
 constraint2_2670: Z_267_0_0 <= 1
 constraint2_2671: Z_267_0_1 <= 1
 constraint2_2672: Z_267_0_2 <= 1
 constraint2_2673: Z_267_0_3 <= 1
 constraint2_5220: Z_522_0_0 <= 1
 constraint2_5221: Z_522_0_1 <= 1
 constraint2_5222: Z_522_0_2 <= 1
 constraint2_5223: Z_522_0_3 <= 1
Bounds
Binaries
 Z_277_0_0 Z_277_0_1 Z_277_0_2 Z_277_0_3 Z_277_0_4 Z_205_1_0 Z_205_1_1
 Z_205_1_2 Z_205_1_3 Z_205_1_4 Z_356_1_0 Z_356_1_1 Z_356_1_2 Z_356_1_3
 Z_356_1_4 Z_719_0_0 Z_719_0_1 Z_719_0_2 Z_719_0_3 Z_719_0_4 Z_217_0_0
 Z_217_0_1 Z_217_0_2 Z_217_0_3 Z_217_0_4 Z_134_0_0 Z_134_0_1 Z_134_0_2
 Z_134_0_3 Z_134_0_4 Z_267_0_0 Z_267_0_1 Z_267_0_2 Z_267_0_3 Z_267_0_4
 Z_522_0_0 Z_522_0_1 Z_522_0_2 Z_522_0_3 Z_522_0_4
End
